1326310
96,70,46,38,30,37,40,65,76,8,36,25,71,56,74,85,26,68,69,13,7,35,27,39,67,54,11,64,6,87,59,105,32,77,107,41,18,61,72,17,49,75,98,104,86,95,92,12,20,47,73,91,55,102,29,5,60,84,42,94,31,50,83,58,1,80,45,93,106,15,28,24,43,19,62,2,82,51,33,100,97,34,4,0,81,44,89,78,3,66,23,108,9,63,21,22,14,79,16,52,99,101,53,57,103,88,90,10,48
